(set-info :smt-lib-version 2.6)
(set-logic QF_NIA)
(set-info :source |
Generated by: Cristina Borralleras, Daniel Larraz, Albert Oliveras, Enric Rodriguez-Carbonell, Albert Rubio
Generated on: 2017-04-27
Generator: VeryMax
Application: Termination proving
Target solver: barcelogic
|)
(set-info :license "https://creativecommons.org/licenses/by/4.0/")
(set-info :category "industrial")
(set-info :status sat)
(declare-fun Nl2main_x1 () Int)
(declare-fun Nl2main_y1 () Int)
(declare-fun Nl2main_x2 () Int)
(declare-fun Nl2main_y2 () Int)
(declare-fun Nl2main_x3 () Int)
(declare-fun Nl2main_y3 () Int)
(declare-fun lam0n0 () Int)
(declare-fun lam0n1 () Int)
(declare-fun lam0n2 () Int)
(declare-fun lam0n3 () Int)
(declare-fun lam0n4 () Int)
(declare-fun lam0n5 () Int)
(declare-fun lam0n6 () Int)
(declare-fun lam0n7 () Int)
(declare-fun lam0n8 () Int)
(declare-fun lam0n9 () Int)
(declare-fun Nl2CT1 () Int)
(declare-fun Nl2CT2 () Int)
(declare-fun Nl2CT3 () Int)
(declare-fun lam1n0 () Int)
(declare-fun lam1n1 () Int)
(declare-fun lam1n2 () Int)
(declare-fun lam1n3 () Int)
(declare-fun lam1n4 () Int)
(declare-fun lam1n5 () Int)
(declare-fun lam1n6 () Int)
(declare-fun lam1n7 () Int)
(declare-fun lam1n8 () Int)
(declare-fun lam1n9 () Int)
(declare-fun lam2n0 () Int)
(declare-fun lam2n1 () Int)
(declare-fun lam2n2 () Int)
(declare-fun lam2n3 () Int)
(declare-fun lam2n4 () Int)
(declare-fun lam2n5 () Int)
(declare-fun lam2n6 () Int)
(declare-fun lam2n7 () Int)
(declare-fun lam2n8 () Int)
(declare-fun lam2n9 () Int)
(declare-fun lam3n0 () Int)
(declare-fun lam3n1 () Int)
(declare-fun lam3n2 () Int)
(declare-fun lam3n3 () Int)
(declare-fun lam3n4 () Int)
(declare-fun lam3n5 () Int)
(declare-fun lam3n6 () Int)
(declare-fun lam3n7 () Int)
(declare-fun lam3n8 () Int)
(declare-fun lam3n9 () Int)
(declare-fun lam4n0 () Int)
(declare-fun lam4n1 () Int)
(declare-fun lam5n0 () Int)
(declare-fun lam5n1 () Int)
(declare-fun lam6n0 () Int)
(declare-fun lam6n1 () Int)
(declare-fun main_x () Int)
(declare-fun undef3 () Int)
(declare-fun main_y () Int)
(declare-fun undef4 () Int)
(declare-fun FV_main_x_1 () Int)
(declare-fun FV_main_y_1 () Int)
(declare-fun lam7n0 () Int)
(declare-fun lam7n1 () Int)
(declare-fun lam7n2 () Int)
(declare-fun lam7n3 () Int)
(declare-fun lam7n4 () Int)
(declare-fun lam7n5 () Int)
(declare-fun lam7n6 () Int)
(declare-fun lam7n7 () Int)
(declare-fun lam7n8 () Int)
(declare-fun lam7n9 () Int)
(declare-fun lam8n0 () Int)
(declare-fun lam8n1 () Int)
(declare-fun lam8n2 () Int)
(declare-fun lam8n3 () Int)
(declare-fun lam8n4 () Int)
(declare-fun lam8n5 () Int)
(declare-fun lam8n6 () Int)
(declare-fun lam8n7 () Int)
(declare-fun lam8n8 () Int)
(declare-fun lam8n9 () Int)
(declare-fun lam9n0 () Int)
(declare-fun lam9n1 () Int)
(declare-fun lam9n2 () Int)
(declare-fun lam9n3 () Int)
(declare-fun lam9n4 () Int)
(declare-fun lam9n5 () Int)
(declare-fun lam9n6 () Int)
(declare-fun lam9n7 () Int)
(declare-fun lam9n8 () Int)
(declare-fun lam10n0 () Int)
(declare-fun lam10n1 () Int)
(declare-fun lam10n2 () Int)
(declare-fun lam10n3 () Int)
(declare-fun lam10n4 () Int)
(declare-fun lam10n5 () Int)
(declare-fun lam10n6 () Int)
(declare-fun lam10n7 () Int)
(declare-fun lam10n8 () Int)
(declare-fun lam10n9 () Int)
(declare-fun lam11n0 () Int)
(declare-fun lam11n1 () Int)
(declare-fun lam11n2 () Int)
(declare-fun lam11n3 () Int)
(declare-fun lam11n4 () Int)
(declare-fun lam11n5 () Int)
(declare-fun lam11n6 () Int)
(declare-fun lam11n7 () Int)
(declare-fun lam11n8 () Int)
(declare-fun lam12n0 () Int)
(declare-fun lam12n1 () Int)
(declare-fun lam12n2 () Int)
(declare-fun lam12n3 () Int)
(declare-fun lam12n4 () Int)
(declare-fun lam12n5 () Int)
(declare-fun lam12n6 () Int)
(declare-fun lam12n7 () Int)
(declare-fun lam12n8 () Int)
(declare-fun lam13n0 () Int)
(declare-fun lam13n1 () Int)
(declare-fun lam13n2 () Int)
(declare-fun lam13n3 () Int)
(declare-fun lam13n4 () Int)
(declare-fun lam13n5 () Int)
(declare-fun lam13n6 () Int)
(declare-fun lam13n7 () Int)
(declare-fun lam13n8 () Int)
(declare-fun lam13n9 () Int)
(declare-fun lam14n0 () Int)
(declare-fun lam14n1 () Int)
(declare-fun lam14n2 () Int)
(declare-fun lam14n3 () Int)
(declare-fun lam14n4 () Int)
(declare-fun lam14n5 () Int)
(declare-fun lam14n6 () Int)
(declare-fun lam14n7 () Int)
(declare-fun lam14n8 () Int)
(declare-fun lam15n0 () Int)
(declare-fun lam15n1 () Int)
(declare-fun lam15n2 () Int)
(declare-fun lam15n3 () Int)
(declare-fun lam15n4 () Int)
(declare-fun lam15n5 () Int)
(declare-fun lam15n6 () Int)
(declare-fun lam15n7 () Int)
(declare-fun lam15n8 () Int)
(declare-fun FV_main_x_2 () Int)
(declare-fun FV_main_y_2 () Int)
(assert ( and ( <= ( - 4 ) Nl2main_x1 ) ( <= Nl2main_x1 4 ) ( <= ( - 4 ) Nl2main_y1 ) ( <= Nl2main_y1 4 ) ( <= ( - 4 ) Nl2main_x2 ) ( <= Nl2main_x2 4 ) ( <= ( - 4 ) Nl2main_y2 ) ( <= Nl2main_y2 4 ) ( <= ( - 4 ) Nl2main_x3 ) ( <= Nl2main_x3 4 ) ( <= ( - 4 ) Nl2main_y3 ) ( <= Nl2main_y3 4 ) ))
(assert ( or ( and ( >= lam0n0 0 ) ( >= lam0n1 0 ) ( >= lam0n2 0 ) ( >= lam0n3 0 ) ( >= lam0n4 0 ) ( >= lam0n5 0 ) ( >= lam0n6 0 ) ( >= lam0n7 0 ) ( >= lam0n8 0 ) ( >= lam0n9 0 ) ( > ( + ( * 2 lam0n0 ) ( * 2 lam0n1 ) ( * 2 lam0n2 ) ( * 1 lam0n3 ) ( * 1 lam0n4 ) ( * 1 lam0n5 ) ( * 3 lam0n6 ) ( * Nl2CT1 lam0n7 ) ( * Nl2CT2 lam0n8 ) ( * Nl2CT3 lam0n9 ) ( - 1 ) ) 0 ) ( = ( + ( * ( - 4 ) lam0n0 ) ( * ( - 2 ) lam0n1 ) ( * ( - 3 ) lam0n2 ) ( * ( - 1 ) lam0n3 ) ( * ( - 1 ) lam0n4 ) ( * ( - 4 ) lam0n5 ) ( * ( - 2 ) lam0n6 ) ( * Nl2main_x1 lam0n7 ) ( * Nl2main_x2 lam0n8 ) ( * Nl2main_x3 lam0n9 ) ) 0 ) ( = ( + ( * ( - 3 ) lam0n0 ) ( * ( - 1 ) lam0n1 ) ( * ( - 2 ) lam0n2 ) ( * 1 lam0n4 ) ( * 5 lam0n5 ) ( * 1 lam0n6 ) ( * Nl2main_y1 lam0n7 ) ( * Nl2main_y2 lam0n8 ) ( * Nl2main_y3 lam0n9 ) ) 0 ) ) ( and ( >= lam1n0 0 ) ( >= lam1n1 0 ) ( >= lam1n2 0 ) ( >= lam1n3 0 ) ( >= lam1n4 0 ) ( >= lam1n5 0 ) ( >= lam1n6 0 ) ( >= lam1n7 0 ) ( >= lam1n8 0 ) ( >= lam1n9 0 ) ( > ( + ( * 2 lam1n0 ) ( * 2 lam1n1 ) ( * 2 lam1n2 ) ( * 1 lam1n3 ) ( * 1 lam1n4 ) ( * 1 lam1n5 ) ( * 3 lam1n6 ) ( * Nl2CT1 lam1n7 ) ( * Nl2CT2 lam1n8 ) ( * Nl2CT3 lam1n9 ) ( - 1 ( + ( + Nl2CT1 ( * Nl2main_x1 0 ) ) ( * Nl2main_y1 0 ) ) ) ) 0 ) ( = ( + ( * ( - 4 ) lam1n0 ) ( * ( - 2 ) lam1n1 ) ( * ( - 3 ) lam1n2 ) ( * ( - 1 ) lam1n3 ) ( * ( - 1 ) lam1n4 ) ( * ( - 4 ) lam1n5 ) ( * ( - 2 ) lam1n6 ) ( * Nl2main_x1 lam1n7 ) ( * Nl2main_x2 lam1n8 ) ( * Nl2main_x3 lam1n9 ) ( - ( + ( + 0 ( * Nl2main_x1 2 ) ) ( * Nl2main_y1 4 ) ) ) ) 0 ) ( = ( + ( * ( - 3 ) lam1n0 ) ( * ( - 1 ) lam1n1 ) ( * ( - 2 ) lam1n2 ) ( * 1 lam1n4 ) ( * 5 lam1n5 ) ( * 1 lam1n6 ) ( * Nl2main_y1 lam1n7 ) ( * Nl2main_y2 lam1n8 ) ( * Nl2main_y3 lam1n9 ) ( - ( + 0 ( * Nl2main_x1 4 ) ) ) ) 0 ) ) ))
(assert ( or ( and ( >= lam0n0 0 ) ( >= lam0n1 0 ) ( >= lam0n2 0 ) ( >= lam0n3 0 ) ( >= lam0n4 0 ) ( >= lam0n5 0 ) ( >= lam0n6 0 ) ( >= lam0n7 0 ) ( >= lam0n8 0 ) ( >= lam0n9 0 ) ( > ( + ( * 2 lam0n0 ) ( * 2 lam0n1 ) ( * 2 lam0n2 ) ( * 1 lam0n3 ) ( * 1 lam0n4 ) ( * 1 lam0n5 ) ( * 3 lam0n6 ) ( * Nl2CT1 lam0n7 ) ( * Nl2CT2 lam0n8 ) ( * Nl2CT3 lam0n9 ) ( - 1 ) ) 0 ) ( = ( + ( * ( - 4 ) lam0n0 ) ( * ( - 2 ) lam0n1 ) ( * ( - 3 ) lam0n2 ) ( * ( - 1 ) lam0n3 ) ( * ( - 1 ) lam0n4 ) ( * ( - 4 ) lam0n5 ) ( * ( - 2 ) lam0n6 ) ( * Nl2main_x1 lam0n7 ) ( * Nl2main_x2 lam0n8 ) ( * Nl2main_x3 lam0n9 ) ) 0 ) ( = ( + ( * ( - 3 ) lam0n0 ) ( * ( - 1 ) lam0n1 ) ( * ( - 2 ) lam0n2 ) ( * 1 lam0n4 ) ( * 5 lam0n5 ) ( * 1 lam0n6 ) ( * Nl2main_y1 lam0n7 ) ( * Nl2main_y2 lam0n8 ) ( * Nl2main_y3 lam0n9 ) ) 0 ) ) ( and ( >= lam2n0 0 ) ( >= lam2n1 0 ) ( >= lam2n2 0 ) ( >= lam2n3 0 ) ( >= lam2n4 0 ) ( >= lam2n5 0 ) ( >= lam2n6 0 ) ( >= lam2n7 0 ) ( >= lam2n8 0 ) ( >= lam2n9 0 ) ( > ( + ( * 2 lam2n0 ) ( * 2 lam2n1 ) ( * 2 lam2n2 ) ( * 1 lam2n3 ) ( * 1 lam2n4 ) ( * 1 lam2n5 ) ( * 3 lam2n6 ) ( * Nl2CT1 lam2n7 ) ( * Nl2CT2 lam2n8 ) ( * Nl2CT3 lam2n9 ) ( - 1 ( + ( + Nl2CT2 ( * Nl2main_x2 0 ) ) ( * Nl2main_y2 0 ) ) ) ) 0 ) ( = ( + ( * ( - 4 ) lam2n0 ) ( * ( - 2 ) lam2n1 ) ( * ( - 3 ) lam2n2 ) ( * ( - 1 ) lam2n3 ) ( * ( - 1 ) lam2n4 ) ( * ( - 4 ) lam2n5 ) ( * ( - 2 ) lam2n6 ) ( * Nl2main_x1 lam2n7 ) ( * Nl2main_x2 lam2n8 ) ( * Nl2main_x3 lam2n9 ) ( - ( + ( + 0 ( * Nl2main_x2 2 ) ) ( * Nl2main_y2 4 ) ) ) ) 0 ) ( = ( + ( * ( - 3 ) lam2n0 ) ( * ( - 1 ) lam2n1 ) ( * ( - 2 ) lam2n2 ) ( * 1 lam2n4 ) ( * 5 lam2n5 ) ( * 1 lam2n6 ) ( * Nl2main_y1 lam2n7 ) ( * Nl2main_y2 lam2n8 ) ( * Nl2main_y3 lam2n9 ) ( - ( + 0 ( * Nl2main_x2 4 ) ) ) ) 0 ) ) ))
(assert ( or ( and ( >= lam0n0 0 ) ( >= lam0n1 0 ) ( >= lam0n2 0 ) ( >= lam0n3 0 ) ( >= lam0n4 0 ) ( >= lam0n5 0 ) ( >= lam0n6 0 ) ( >= lam0n7 0 ) ( >= lam0n8 0 ) ( >= lam0n9 0 ) ( > ( + ( * 2 lam0n0 ) ( * 2 lam0n1 ) ( * 2 lam0n2 ) ( * 1 lam0n3 ) ( * 1 lam0n4 ) ( * 1 lam0n5 ) ( * 3 lam0n6 ) ( * Nl2CT1 lam0n7 ) ( * Nl2CT2 lam0n8 ) ( * Nl2CT3 lam0n9 ) ( - 1 ) ) 0 ) ( = ( + ( * ( - 4 ) lam0n0 ) ( * ( - 2 ) lam0n1 ) ( * ( - 3 ) lam0n2 ) ( * ( - 1 ) lam0n3 ) ( * ( - 1 ) lam0n4 ) ( * ( - 4 ) lam0n5 ) ( * ( - 2 ) lam0n6 ) ( * Nl2main_x1 lam0n7 ) ( * Nl2main_x2 lam0n8 ) ( * Nl2main_x3 lam0n9 ) ) 0 ) ( = ( + ( * ( - 3 ) lam0n0 ) ( * ( - 1 ) lam0n1 ) ( * ( - 2 ) lam0n2 ) ( * 1 lam0n4 ) ( * 5 lam0n5 ) ( * 1 lam0n6 ) ( * Nl2main_y1 lam0n7 ) ( * Nl2main_y2 lam0n8 ) ( * Nl2main_y3 lam0n9 ) ) 0 ) ) ( and ( >= lam3n0 0 ) ( >= lam3n1 0 ) ( >= lam3n2 0 ) ( >= lam3n3 0 ) ( >= lam3n4 0 ) ( >= lam3n5 0 ) ( >= lam3n6 0 ) ( >= lam3n7 0 ) ( >= lam3n8 0 ) ( >= lam3n9 0 ) ( > ( + ( * 2 lam3n0 ) ( * 2 lam3n1 ) ( * 2 lam3n2 ) ( * 1 lam3n3 ) ( * 1 lam3n4 ) ( * 1 lam3n5 ) ( * 3 lam3n6 ) ( * Nl2CT1 lam3n7 ) ( * Nl2CT2 lam3n8 ) ( * Nl2CT3 lam3n9 ) ( - 1 ( + ( + Nl2CT3 ( * Nl2main_x3 0 ) ) ( * Nl2main_y3 0 ) ) ) ) 0 ) ( = ( + ( * ( - 4 ) lam3n0 ) ( * ( - 2 ) lam3n1 ) ( * ( - 3 ) lam3n2 ) ( * ( - 1 ) lam3n3 ) ( * ( - 1 ) lam3n4 ) ( * ( - 4 ) lam3n5 ) ( * ( - 2 ) lam3n6 ) ( * Nl2main_x1 lam3n7 ) ( * Nl2main_x2 lam3n8 ) ( * Nl2main_x3 lam3n9 ) ( - ( + ( + 0 ( * Nl2main_x3 2 ) ) ( * Nl2main_y3 4 ) ) ) ) 0 ) ( = ( + ( * ( - 3 ) lam3n0 ) ( * ( - 1 ) lam3n1 ) ( * ( - 2 ) lam3n2 ) ( * 1 lam3n4 ) ( * 5 lam3n5 ) ( * 1 lam3n6 ) ( * Nl2main_y1 lam3n7 ) ( * Nl2main_y2 lam3n8 ) ( * Nl2main_y3 lam3n9 ) ( - ( + 0 ( * Nl2main_x3 4 ) ) ) ) 0 ) ) ))
(assert ( and ( <= ( + Nl2CT1 ( * Nl2main_x1 FV_main_x_1 ) ( * Nl2main_y1 FV_main_y_1 ) ) 0 ) ( <= ( + Nl2CT2 ( * Nl2main_x2 FV_main_x_1 ) ( * Nl2main_y2 FV_main_y_1 ) ) 0 ) ( <= ( + Nl2CT3 ( * Nl2main_x3 FV_main_x_1 ) ( * Nl2main_y3 FV_main_y_1 ) ) 0 ) ))
(assert ( or ( and ( >= lam7n0 0 ) ( >= lam7n1 0 ) ( >= lam7n2 0 ) ( >= lam7n3 0 ) ( >= lam7n4 0 ) ( >= lam7n5 0 ) ( >= lam7n6 0 ) ( >= lam7n7 0 ) ( >= lam7n8 0 ) ( >= lam7n9 0 ) ( > ( + ( * 2 lam7n0 ) ( * 2 lam7n1 ) ( * 2 lam7n2 ) ( * 1 lam7n3 ) ( * 1 lam7n4 ) ( * 1 lam7n5 ) ( * ( - 2 ) lam7n6 ) ( * Nl2CT1 lam7n7 ) ( * Nl2CT2 lam7n8 ) ( * Nl2CT3 lam7n9 ) ( - 1 ) ) 0 ) ( = ( + ( * ( - 4 ) lam7n0 ) ( * ( - 2 ) lam7n1 ) ( * ( - 3 ) lam7n2 ) ( * ( - 1 ) lam7n3 ) ( * ( - 1 ) lam7n4 ) ( * ( - 4 ) lam7n5 ) ( * 2 lam7n6 ) ( * Nl2main_x1 lam7n7 ) ( * Nl2main_x2 lam7n8 ) ( * Nl2main_x3 lam7n9 ) ) 0 ) ( = ( + ( * ( - 3 ) lam7n0 ) ( * ( - 1 ) lam7n1 ) ( * ( - 2 ) lam7n2 ) ( * 1 lam7n4 ) ( * 5 lam7n5 ) ( * ( - 1 ) lam7n6 ) ( * Nl2main_y1 lam7n7 ) ( * Nl2main_y2 lam7n8 ) ( * Nl2main_y3 lam7n9 ) ) 0 ) ) ( and ( >= lam8n0 0 ) ( >= lam8n1 0 ) ( >= lam8n2 0 ) ( >= lam8n3 0 ) ( >= lam8n4 0 ) ( >= lam8n5 0 ) ( >= lam8n6 0 ) ( >= lam8n7 0 ) ( >= lam8n8 0 ) ( >= lam8n9 0 ) ( > ( + ( * 2 lam8n1 ) ( * 2 lam8n2 ) ( * 2 lam8n3 ) ( * 1 lam8n4 ) ( * 1 lam8n5 ) ( * 3 lam8n6 ) ( * Nl2CT1 lam8n7 ) ( * Nl2CT2 lam8n8 ) ( * Nl2CT3 lam8n9 ) ( - 1 ) ) 0 ) ( = ( + ( * 4 lam8n0 ) ( * ( - 4 ) lam8n1 ) ( * ( - 2 ) lam8n2 ) ( * ( - 3 ) lam8n3 ) ( * ( - 1 ) lam8n4 ) ( * ( - 1 ) lam8n5 ) ( * ( - 2 ) lam8n6 ) ( * Nl2main_x1 lam8n7 ) ( * Nl2main_x2 lam8n8 ) ( * Nl2main_x3 lam8n9 ) ) 0 ) ( = ( + ( * ( - 5 ) lam8n0 ) ( * ( - 3 ) lam8n1 ) ( * ( - 1 ) lam8n2 ) ( * ( - 2 ) lam8n3 ) ( * 1 lam8n5 ) ( * 1 lam8n6 ) ( * Nl2main_y1 lam8n7 ) ( * Nl2main_y2 lam8n8 ) ( * Nl2main_y3 lam8n9 ) ) 0 ) ) ( and ( >= lam9n0 0 ) ( >= lam9n1 0 ) ( >= lam9n2 0 ) ( >= lam9n3 0 ) ( >= lam9n4 0 ) ( >= lam9n5 0 ) ( >= lam9n6 0 ) ( >= lam9n7 0 ) ( >= lam9n8 0 ) ( > ( + ( * 2 lam9n2 ) ( * 2 lam9n3 ) ( * 2 lam9n4 ) ( * 1 lam9n5 ) ( * Nl2CT1 lam9n6 ) ( * Nl2CT2 lam9n7 ) ( * Nl2CT3 lam9n8 ) ( - 1 ) ) 0 ) ( = ( + ( * 4 lam9n0 ) ( * 1 lam9n1 ) ( * ( - 4 ) lam9n2 ) ( * ( - 2 ) lam9n3 ) ( * ( - 3 ) lam9n4 ) ( * ( - 1 ) lam9n5 ) ( * Nl2main_x1 lam9n6 ) ( * Nl2main_x2 lam9n7 ) ( * Nl2main_x3 lam9n8 ) ) 0 ) ( = ( + ( * ( - 5 ) lam9n0 ) ( * ( - 1 ) lam9n1 ) ( * ( - 3 ) lam9n2 ) ( * ( - 1 ) lam9n3 ) ( * ( - 2 ) lam9n4 ) ( * Nl2main_y1 lam9n6 ) ( * Nl2main_y2 lam9n7 ) ( * Nl2main_y3 lam9n8 ) ) 0 ) ) ( and ( >= lam10n0 0 ) ( >= lam10n1 0 ) ( >= lam10n2 0 ) ( >= lam10n3 0 ) ( >= lam10n4 0 ) ( >= lam10n5 0 ) ( >= lam10n6 0 ) ( >= lam10n7 0 ) ( >= lam10n8 0 ) ( >= lam10n9 0 ) ( > ( + ( * 2 lam10n3 ) ( * 2 lam10n4 ) ( * 2 lam10n5 ) ( * ( - 2 ) lam10n6 ) ( * Nl2CT1 lam10n7 ) ( * Nl2CT2 lam10n8 ) ( * Nl2CT3 lam10n9 ) ( - 1 ) ) 0 ) ( = ( + ( * 4 lam10n0 ) ( * 1 lam10n1 ) ( * 1 lam10n2 ) ( * ( - 4 ) lam10n3 ) ( * ( - 2 ) lam10n4 ) ( * ( - 3 ) lam10n5 ) ( * 2 lam10n6 ) ( * Nl2main_x1 lam10n7 ) ( * Nl2main_x2 lam10n8 ) ( * Nl2main_x3 lam10n9 ) ) 0 ) ( = ( + ( * ( - 5 ) lam10n0 ) ( * ( - 1 ) lam10n2 ) ( * ( - 3 ) lam10n3 ) ( * ( - 1 ) lam10n4 ) ( * ( - 2 ) lam10n5 ) ( * ( - 1 ) lam10n6 ) ( * Nl2main_y1 lam10n7 ) ( * Nl2main_y2 lam10n8 ) ( * Nl2main_y3 lam10n9 ) ) 0 ) ) ( and ( >= lam11n0 0 ) ( >= lam11n1 0 ) ( >= lam11n2 0 ) ( >= lam11n3 0 ) ( >= lam11n4 0 ) ( >= lam11n5 0 ) ( >= lam11n6 0 ) ( >= lam11n7 0 ) ( >= lam11n8 0 ) ( > ( + ( * 2 lam11n3 ) ( * ( - 1 ) lam11n4 ) ( * ( - 2 ) lam11n5 ) ( * Nl2CT1 lam11n6 ) ( * Nl2CT2 lam11n7 ) ( * Nl2CT3 lam11n8 ) ( - 1 ) ) 0 ) ( = ( + ( * 4 lam11n0 ) ( * 1 lam11n1 ) ( * 1 lam11n2 ) ( * ( - 4 ) lam11n3 ) ( * 2 lam11n4 ) ( * 2 lam11n5 ) ( * Nl2main_x1 lam11n6 ) ( * Nl2main_x2 lam11n7 ) ( * Nl2main_x3 lam11n8 ) ) 0 ) ( = ( + ( * ( - 5 ) lam11n0 ) ( * ( - 1 ) lam11n2 ) ( * ( - 3 ) lam11n3 ) ( * 1 lam11n4 ) ( * ( - 1 ) lam11n5 ) ( * Nl2main_y1 lam11n6 ) ( * Nl2main_y2 lam11n7 ) ( * Nl2main_y3 lam11n8 ) ) 0 ) ) ( and ( >= lam12n0 0 ) ( >= lam12n1 0 ) ( >= lam12n2 0 ) ( >= lam12n3 0 ) ( >= lam12n4 0 ) ( >= lam12n5 0 ) ( >= lam12n6 0 ) ( >= lam12n7 0 ) ( >= lam12n8 0 ) ( > ( + ( * 2 lam12n0 ) ( * 1 lam12n1 ) ( * 1 lam12n2 ) ( * 1 lam12n3 ) ( * ( - 1 ) lam12n4 ) ( * 3 lam12n5 ) ( * Nl2CT1 lam12n6 ) ( * Nl2CT2 lam12n7 ) ( * Nl2CT3 lam12n8 ) ( - 1 ) ) 0 ) ( = ( + ( * ( - 2 ) lam12n0 ) ( * ( - 1 ) lam12n1 ) ( * ( - 1 ) lam12n2 ) ( * ( - 4 ) lam12n3 ) ( * 4 lam12n4 ) ( * ( - 2 ) lam12n5 ) ( * Nl2main_x1 lam12n6 ) ( * Nl2main_x2 lam12n7 ) ( * Nl2main_x3 lam12n8 ) ) 0 ) ( = ( + ( * ( - 1 ) lam12n0 ) ( * 1 lam12n2 ) ( * 5 lam12n3 ) ( * 3 lam12n4 ) ( * 1 lam12n5 ) ( * Nl2main_y1 lam12n6 ) ( * Nl2main_y2 lam12n7 ) ( * Nl2main_y3 lam12n8 ) ) 0 ) ) ( and ( >= lam13n0 0 ) ( >= lam13n1 0 ) ( >= lam13n2 0 ) ( >= lam13n3 0 ) ( >= lam13n4 0 ) ( >= lam13n5 0 ) ( >= lam13n6 0 ) ( >= lam13n7 0 ) ( >= lam13n8 0 ) ( >= lam13n9 0 ) ( > ( + ( * 1 lam13n0 ) ( * 1 lam13n1 ) ( * 1 lam13n2 ) ( * ( - 1 ) lam13n3 ) ( * ( - 1 ) lam13n4 ) ( * ( - 1 ) lam13n5 ) ( * 3 lam13n6 ) ( * Nl2CT1 lam13n7 ) ( * Nl2CT2 lam13n8 ) ( * Nl2CT3 lam13n9 ) ( - 1 ) ) 0 ) ( = ( + ( * ( - 1 ) lam13n0 ) ( * ( - 1 ) lam13n1 ) ( * ( - 4 ) lam13n2 ) ( * 4 lam13n3 ) ( * 2 lam13n4 ) ( * 3 lam13n5 ) ( * ( - 2 ) lam13n6 ) ( * Nl2main_x1 lam13n7 ) ( * Nl2main_x2 lam13n8 ) ( * Nl2main_x3 lam13n9 ) ) 0 ) ( = ( + ( * 1 lam13n1 ) ( * 5 lam13n2 ) ( * 3 lam13n3 ) ( * 1 lam13n4 ) ( * 2 lam13n5 ) ( * 1 lam13n6 ) ( * Nl2main_y1 lam13n7 ) ( * Nl2main_y2 lam13n8 ) ( * Nl2main_y3 lam13n9 ) ) 0 ) ) ( and ( >= lam14n0 0 ) ( >= lam14n1 0 ) ( >= lam14n2 0 ) ( >= lam14n3 0 ) ( >= lam14n4 0 ) ( >= lam14n5 0 ) ( >= lam14n6 0 ) ( >= lam14n7 0 ) ( >= lam14n8 0 ) ( > ( + ( * 1 lam14n1 ) ( * 1 lam14n2 ) ( * ( - 1 ) lam14n3 ) ( * ( - 1 ) lam14n4 ) ( * ( - 1 ) lam14n5 ) ( * Nl2CT1 lam14n6 ) ( * Nl2CT2 lam14n7 ) ( * Nl2CT3 lam14n8 ) ( - 1 ) ) 0 ) ( = ( + ( * 1 lam14n0 ) ( * ( - 1 ) lam14n1 ) ( * ( - 4 ) lam14n2 ) ( * 4 lam14n3 ) ( * 2 lam14n4 ) ( * 3 lam14n5 ) ( * Nl2main_x1 lam14n6 ) ( * Nl2main_x2 lam14n7 ) ( * Nl2main_x3 lam14n8 ) ) 0 ) ( = ( + ( * 1 lam14n1 ) ( * 5 lam14n2 ) ( * 3 lam14n3 ) ( * 1 lam14n4 ) ( * 2 lam14n5 ) ( * Nl2main_y1 lam14n6 ) ( * Nl2main_y2 lam14n7 ) ( * Nl2main_y3 lam14n8 ) ) 0 ) ) ( and ( >= lam15n0 0 ) ( >= lam15n1 0 ) ( >= lam15n2 0 ) ( >= lam15n3 0 ) ( >= lam15n4 0 ) ( >= lam15n5 0 ) ( >= lam15n6 0 ) ( >= lam15n7 0 ) ( >= lam15n8 0 ) ( > ( + ( * ( - 1 ) lam15n2 ) ( * ( - 1 ) lam15n3 ) ( * ( - 1 ) lam15n4 ) ( * ( - 2 ) lam15n5 ) ( * Nl2CT1 lam15n6 ) ( * Nl2CT2 lam15n7 ) ( * Nl2CT3 lam15n8 ) ( - 1 ) ) 0 ) ( = ( + ( * 1 lam15n0 ) ( * 1 lam15n1 ) ( * 4 lam15n2 ) ( * 2 lam15n3 ) ( * 3 lam15n4 ) ( * 2 lam15n5 ) ( * Nl2main_x1 lam15n6 ) ( * Nl2main_x2 lam15n7 ) ( * Nl2main_x3 lam15n8 ) ) 0 ) ( = ( + ( * ( - 1 ) lam15n1 ) ( * 3 lam15n2 ) ( * 1 lam15n3 ) ( * 2 lam15n4 ) ( * ( - 1 ) lam15n5 ) ( * Nl2main_y1 lam15n6 ) ( * Nl2main_y2 lam15n7 ) ( * Nl2main_y3 lam15n8 ) ) 0 ) ) ))
(assert ( and ( and ( <= ( + Nl2CT1 ( * Nl2main_x1 FV_main_x_2 ) ( * Nl2main_y1 FV_main_y_2 ) ) 0 ) ( <= ( + Nl2CT2 ( * Nl2main_x2 FV_main_x_2 ) ( * Nl2main_y2 FV_main_y_2 ) ) 0 ) ( <= ( + Nl2CT3 ( * Nl2main_x3 FV_main_x_2 ) ( * Nl2main_y3 FV_main_y_2 ) ) 0 ) ) ( and ( <= ( + 2 ( * ( - 4 ) FV_main_x_2 ) ( * ( - 3 ) FV_main_y_2 ) ) 0 ) ( <= ( + 2 ( * ( - 2 ) FV_main_x_2 ) ( * ( - 1 ) FV_main_y_2 ) ) 0 ) ( <= ( + 2 ( * ( - 3 ) FV_main_x_2 ) ( * ( - 2 ) FV_main_y_2 ) ) 0 ) ( <= ( + 1 ( * ( - 1 ) FV_main_x_2 ) ) 0 ) ( <= ( + 1 ( * ( - 1 ) FV_main_x_2 ) FV_main_y_2 ) 0 ) ( <= ( + 1 ( * ( - 4 ) FV_main_x_2 ) ( * 5 FV_main_y_2 ) ) 0 ) ( <= ( + 3 ( * ( - 2 ) FV_main_x_2 ) FV_main_y_2 ) 0 ) ) ))
(check-sat)
(exit)
